50
1689 1818
2556 694
3029 2600
2860 2035
2714 1473
194 3117
788 2359
2552 1673
3433 486
2086 1965
2254 2235
2742 1581
3071 183
313 1287
2286 3696
3800 1900
380 1560
3501 800
3526 1283
3186 1283
737 1379
1626 593
3529 566
63 2919
3031 2275
1052 2599
785 2272
2620 3166
326 1816
3827 1955
1434 2571
2412 2691
3263 2038
3074 1595
2085 3092
178 3302
3987 3621
3856 3640
886 2639
1466 41
505 226
2923 2646
2838 928
3248 3140
44 1789
224 2118
3986 2659
1735 1378
1290 1817
2692 559